c FILE /home/rafael/Documents/HappySet/MIHS/inputs/happygen/output/graph_scale_free_k4_p0.2_v100_20241127_083823.txt
c SOURCE This is a scale-free graph formed for the happy graph colouring problem.
c DESCRIPTION It was generated using the problem generator of Rhyd Lewis
c
c GRAPH STATS
c Seed                             = 1188546286
c Number of Nodes                  = 100
c Number of colours k              = 4
c Number of pre-assignments        = 20
c Number of links per new node     = 5
c Density                          = 0.0979798
c 
c The degrees of nodes 1 to 100, respectively, are as follows 
c [38, 37, 33, 29, 28, 27, 24, 24, 20, 20, 19, 18, 17, 17, 16, 16, 15, 14, 14, 14, 12, 11, 11, 10, 10, 10, 
c  10, 10, 9, 9, 9, 9, 9, 9, 9, 9, 8, 8, 7, 7, 7, 7, 7, 7, 7, 7, 7, 7, 7, 7, 6, 
c  6, 6, 6, 6, 6, 6, 6, 6, 6, 6, 6, 6, 6, 6, 6, 6, 6, 6, 6, 6, 6, 6, 6, 5, 5, 
c  5, 5, 5, 5, 5, 5, 5, 5, 5, 5, 5, 5, 5, 5, 5, 5, 5, 5, 5, 5, 5, 5, 5, 5] 
c  
p edge 100 485 4
e 1 2
e 1 3
e 1 4
e 1 5
e 1 6
e 1 7
e 1 8
e 1 11
e 1 12
e 1 14
e 1 15
e 1 16
e 1 17
e 1 19
e 1 21
e 1 23
e 1 24
e 1 25
e 1 29
e 1 30
e 1 32
e 1 40
e 1 45
e 1 46
e 1 50
e 1 52
e 1 55
e 1 56
e 1 57
e 1 60
e 1 61
e 1 77
e 1 81
e 1 83
e 1 85
e 1 88
e 1 91
e 1 95
e 2 3
e 2 4
e 2 5
e 2 6
e 2 7
e 2 10
e 2 11
e 2 13
e 2 15
e 2 16
e 2 17
e 2 18
e 2 19
e 2 20
e 2 24
e 2 25
e 2 28
e 2 31
e 2 32
e 2 34
e 2 37
e 2 40
e 2 43
e 2 44
e 2 47
e 2 48
e 2 51
e 2 53
e 2 54
e 2 56
e 2 68
e 2 72
e 2 77
e 2 80
e 2 94
e 2 96
e 3 4
e 3 5
e 3 7
e 3 8
e 3 9
e 3 11
e 3 12
e 3 14
e 3 15
e 3 17
e 3 19
e 3 22
e 3 32
e 3 33
e 3 34
e 3 36
e 3 38
e 3 39
e 3 40
e 3 44
e 3 47
e 3 51
e 3 56
e 3 76
e 3 77
e 3 79
e 3 80
e 3 82
e 3 89
e 3 90
e 3 92
e 4 5
e 4 7
e 4 8
e 4 9
e 4 12
e 4 13
e 4 15
e 4 20
e 4 21
e 4 32
e 4 34
e 4 35
e 4 40
e 4 43
e 4 46
e 4 50
e 4 53
e 4 56
e 4 59
e 4 64
e 4 68
e 4 75
e 4 78
e 4 81
e 4 86
e 4 88
e 5 6
e 5 7
e 5 11
e 5 12
e 5 13
e 5 18
e 5 21
e 5 22
e 5 24
e 5 26
e 5 30
e 5 31
e 5 38
e 5 42
e 5 44
e 5 46
e 5 51
e 5 60
e 5 63
e 5 67
e 5 73
e 5 81
e 5 83
e 5 90
e 6 7
e 6 8
e 6 9
e 6 10
e 6 11
e 6 13
e 6 14
e 6 17
e 6 18
e 6 21
e 6 23
e 6 28
e 6 34
e 6 39
e 6 52
e 6 57
e 6 59
e 6 67
e 6 70
e 6 85
e 6 87
e 6 89
e 6 96
e 6 97
e 7 8
e 7 10
e 7 11
e 7 14
e 7 23
e 7 31
e 7 33
e 7 43
e 7 45
e 7 47
e 7 53
e 7 61
e 7 66
e 7 69
e 7 75
e 7 85
e 7 94
e 7 99
e 8 9
e 8 10
e 8 13
e 8 14
e 8 20
e 8 22
e 8 23
e 8 24
e 8 25
e 8 28
e 8 42
e 8 50
e 8 68
e 8 71
e 8 75
e 8 76
e 8 77
e 8 78
e 8 80
e 9 17
e 9 19
e 9 21
e 9 27
e 9 33
e 9 39
e 9 41
e 9 54
e 9 60
e 9 62
e 9 64
e 9 68
e 9 73
e 9 82
e 9 85
e 9 93
e 10 14
e 10 16
e 10 24
e 10 28
e 10 29
e 10 30
e 10 37
e 10 39
e 10 44
e 10 45
e 10 52
e 10 54
e 10 55
e 10 58
e 10 63
e 10 92
e 11 17
e 11 29
e 11 32
e 11 37
e 11 41
e 11 42
e 11 52
e 11 55
e 11 57
e 11 76
e 11 78
e 11 87
e 11 98
e 12 13
e 12 25
e 12 29
e 12 30
e 12 41
e 12 52
e 12 54
e 12 55
e 12 68
e 12 71
e 12 73
e 12 81
e 12 87
e 12 93
e 13 18
e 13 28
e 13 48
e 13 49
e 13 58
e 13 61
e 13 62
e 13 65
e 13 69
e 13 84
e 13 97
e 14 22
e 14 23
e 14 27
e 14 29
e 14 31
e 14 36
e 14 43
e 14 51
e 14 58
e 14 74
e 14 96
e 15 19
e 15 20
e 15 25
e 15 29
e 15 30
e 15 44
e 15 65
e 15 69
e 15 72
e 15 77
e 15 84
e 15 93
e 16 23
e 16 35
e 16 38
e 16 39
e 16 40
e 16 41
e 16 45
e 16 48
e 16 55
e 16 85
e 16 93
e 16 97
e 16 99
e 17 18
e 17 26
e 17 39
e 17 43
e 17 45
e 17 61
e 17 86
e 17 92
e 17 94
e 18 36
e 18 49
e 18 51
e 18 57
e 18 59
e 18 63
e 18 76
e 18 88
e 18 99
e 19 20
e 19 27
e 19 35
e 19 37
e 19 49
e 19 73
e 19 86
e 19 89
e 19 94
e 20 27
e 20 41
e 20 42
e 20 46
e 20 53
e 20 72
e 20 81
e 20 90
e 20 95
e 21 22
e 21 54
e 21 58
e 21 61
e 21 64
e 21 86
e 21 96
e 22 26
e 22 35
e 22 58
e 22 59
e 22 67
e 22 95
e 23 42
e 23 59
e 23 63
e 23 70
e 23 91
e 24 33
e 24 62
e 24 71
e 24 83
e 24 98
e 25 60
e 25 67
e 25 82
e 25 86
e 25 95
e 26 30
e 26 33
e 26 36
e 26 50
e 26 74
e 26 79
e 26 87
e 27 35
e 27 54
e 27 65
e 27 79
e 27 80
e 27 100
e 28 48
e 28 64
e 28 71
e 28 91
e 28 100
e 29 31
e 29 53
e 29 62
e 30 34
e 30 50
e 30 75
e 31 33
e 31 37
e 31 47
e 31 78
e 32 47
e 32 75
e 32 76
e 32 90
e 33 56
e 33 74
e 33 84
e 34 70
e 34 71
e 34 90
e 34 99
e 35 36
e 35 79
e 35 82
e 35 84
e 36 38
e 36 66
e 36 70
e 36 99
e 37 66
e 37 69
e 37 78
e 38 59
e 38 92
e 38 97
e 38 98
e 39 60
e 40 57
e 40 66
e 41 88
e 41 98
e 42 74
e 42 93
e 43 48
e 43 80
e 44 65
e 44 67
e 45 91
e 45 100
e 46 58
e 46 94
e 46 95
e 47 69
e 47 89
e 48 49
e 48 72
e 49 64
e 49 74
e 49 96
e 50 88
e 50 89
e 51 63
e 52 62
e 53 83
e 55 84
e 56 83
e 57 64
e 60 79
e 61 65
e 62 73
e 63 82
e 65 66
e 66 91
e 67 97
e 68 92
e 69 70
e 70 87
e 71 72
e 72 98
e 73 100
e 74 100
n 2 2
n 12 4
n 16 2
n 26 1
n 32 2
n 37 2
n 40 2
n 50 1
n 51 2
n 61 3
n 62 3
n 64 2
n 66 2
n 70 2
n 79 1
n 82 3
n 85 2
n 86 3
n 88 1
n 90 2
